#######################################
### Exact MIP solver for the HHCRSP ###
#######################################
-- Instance file: new-instances/HHCRSP_25_5_89_1.0_C_R.txt
-- Max threads: 4
-- Time limit: 999999 seconds
-- Use initial solution: No
Trivial flow violations prevented generating 911 variables.
Model exported.
Version identifier: 20.1.0.0 | 2020-11-10 | 9bedb6d68
CPXPARAM_Threads                                 4
CPXPARAM_TimeLimit                               999999
Tried aggregator 1 time.
LP Presolve eliminated 462 rows and 166 columns.
Reduced LP has 1452 rows, 1404 columns, and 10387 nonzeros.
Presolve time = 0.01 sec. (3.30 ticks)
Symmetry aggregator did 1143 additional substitutions.

Iteration log . . .
Iteration:     1   Dual objective     =             0.000000

Dual crossover.
  Dual:  Fixing 28 variables.
       27 DMoves:  Infeasibility  5.99525259e-15  Objective  9.13372800e+01
        0 DMoves:  Infeasibility  4.77400726e-15  Objective  9.13372800e+01
  Dual:  Pushed 4, exchanged 24.
  Primal:  Fixing 18 variables.
       17 PMoves:  Infeasibility  5.42101086e-20  Objective  9.13372800e+01
        0 PMoves:  Infeasibility  5.42101086e-20  Objective  9.13372800e+01
  Primal:  Pushed 6, exchanged 12.

Solution status from MIP model:
-- Processing time: 0.009 sec.
-- Memory used: 15.1055 MB
-- Best bound: inf
-- Obj value: 91.3373
-- Gap: inf%
-- Total distance: 274.012
-- Total tardiness: 0
-- Largest tardiness: 0
